(set-info :smt-lib-version 2.6)
(set-logic QF_UFLRA)
(set-info :source |
MathSat group

|)
(set-info :category "random")
(set-info :status sat)
(declare-fun x0 () Real)
(declare-fun x1 () Real)
(declare-fun x2 () Real)
(declare-fun x3 () Real)
(declare-fun x4 () Real)
(declare-fun x5 () Real)
(declare-fun x6 () Real)
(declare-fun x7 () Real)
(declare-fun x8 () Real)
(declare-fun x9 () Real)
(declare-fun x10 () Real)
(declare-fun x11 () Real)
(declare-fun x12 () Real)
(declare-fun x13 () Real)
(declare-fun x14 () Real)
(declare-fun x15 () Real)
(declare-fun x16 () Real)
(declare-fun x17 () Real)
(declare-fun x18 () Real)
(declare-fun x19 () Real)
(declare-fun x20 () Real)
(declare-fun x21 () Real)
(declare-fun x22 () Real)
(declare-fun x23 () Real)
(declare-fun x24 () Real)
(declare-fun x25 () Real)
(declare-fun x26 () Real)
(declare-fun x27 () Real)
(declare-fun x28 () Real)
(declare-fun x29 () Real)
(declare-fun x30 () Real)
(declare-fun x31 () Real)
(declare-fun x32 () Real)
(declare-fun x33 () Real)
(declare-fun x34 () Real)
(declare-fun x35 () Real)
(declare-fun x36 () Real)
(declare-fun x37 () Real)
(declare-fun x38 () Real)
(declare-fun x39 () Real)
(declare-fun f0_1 (Real) Real)
(declare-fun f0_2 (Real Real) Real)
(declare-fun f0_3 (Real Real Real) Real)
(declare-fun f0_4 (Real Real Real Real) Real)
(declare-fun P0 () Bool)
(declare-fun P1 () Bool)
(declare-fun P2 () Bool)
(declare-fun P3 () Bool)
(declare-fun P4 () Bool)
(declare-fun P5 () Bool)
(declare-fun P6 () Bool)
(declare-fun P7 () Bool)
(declare-fun P8 () Bool)
(declare-fun P9 () Bool)
(declare-fun P10 () Bool)
(declare-fun P11 () Bool)
(declare-fun P12 () Bool)
(declare-fun P13 () Bool)
(declare-fun P14 () Bool)
(declare-fun P15 () Bool)
(declare-fun P16 () Bool)
(declare-fun P17 () Bool)
(declare-fun P18 () Bool)
(declare-fun P19 () Bool)
(declare-fun P20 () Bool)
(declare-fun P21 () Bool)
(declare-fun P22 () Bool)
(declare-fun P23 () Bool)
(declare-fun P24 () Bool)
(declare-fun P25 () Bool)
(declare-fun P26 () Bool)
(declare-fun P27 () Bool)
(declare-fun P28 () Bool)
(declare-fun P29 () Bool)
(declare-fun P30 () Bool)
(declare-fun P31 () Bool)
(declare-fun P32 () Bool)
(declare-fun P33 () Bool)
(declare-fun P34 () Bool)
(declare-fun P35 () Bool)
(declare-fun P36 () Bool)
(declare-fun P37 () Bool)
(declare-fun P38 () Bool)
(declare-fun P39 () Bool)
(assert (let ((?v_185 (distinct (- (- (* 56 x1) (* 26 x25)) (* 46 x10)) 31)) (?v_52 (< (- (+ (* 48 x13) (* 20 x7)) (* 27 x10)) 54)) (?v_133 (= (+ (- (* 22 x29) (* 47 x17)) (* 49 x37)) 3)) (?v_176 (<= (- (+ (* 9 x9) (* 19 x10)) (* 27 x39)) 8)) (?v_59 (< (- (- (* 7 x13) (* 19 x15)) (* 34 x29)) 42)) (?v_1 (< (+ (- (* 51 x3) (* 26 x30)) (* 34 x25)) 44)) (?v_13 (distinct x39 x18)) (?v_28 (= (f0_2 x5 x37) x8)) (?v_79 (f0_1 x25)) (?v_27 (f0_1 x36))) (let ((?v_151 (= ?v_79 ?v_27)) (?v_86 (= x33 (f0_2 x23 x30))) (?v_64 (f0_1 x4))) (let ((?v_166 (= x6 ?v_64)) (?v_58 (distinct (f0_2 x19 x31) (f0_2 x11 x38))) (?v_5 (f0_1 x26))) (let ((?v_67 (distinct (f0_2 x13 x32) ?v_5)) (?v_112 (distinct (f0_2 x3 x19) ?v_64)) (?v_129 (= (f0_2 x3 x23) x7)) (?v_18 (f0_1 x12))) (let ((?v_83 (= (f0_2 x28 x23) ?v_18)) (?v_132 (= (f0_2 x27 x9) (f0_2 x21 x15))) (?v_45 (= x33 x28)) (?v_98 (f0_1 x5))) (let ((?v_182 (= ?v_98 (f0_2 x26 x18))) (?v_12 (f0_1 x32))) (let ((?v_21 (= x19 ?v_12)) (?v_31 (distinct x18 ?v_18)) (?v_54 (distinct (f0_1 x7) x13)) (?v_155 (distinct (f0_2 x9 x22) x13)) (?v_121 (distinct x28 x11)) (?v_113 (= (f0_2 x1 x4) ?v_5)) (?v_84 (distinct x39 (f0_2 x1 x30))) (?v_85 (f0_2 x0 x12))) (let ((?v_170 (= (f0_2 x21 x38) ?v_85)) (?v_34 (f0_2 x12 x7))) (let ((?v_103 (= ?v_34 ?v_5)) (?v_78 (= ?v_85 x27)) (?v_29 (distinct (f0_1 x13) ?v_12)) (?v_136 (distinct (f0_1 x38) (f0_1 x33))) (?v_55 (= (f0_2 x8 x29) x21)) (?v_104 (= x34 (f0_1 x34))) (?v_60 (= x18 (f0_2 x15 x6))) (?v_41 (= x34 (f0_1 x11))) (?v_168 (= ?v_79 (f0_2 x38 x1))) (?v_197 (= x35 (f0_1 x10))) (?v_144 (= x20 (f0_2 x22 x1))) (?v_108 (= x19 (f0_2 x19 x10))) (?v_118 (distinct x31 x20)) (?v_62 (distinct (f0_2 x9 x2) x32)) (?v_61 (distinct x17 ?v_34)) (?v_40 (= ?v_98 ?v_27)) (?v_63 (= (f0_2 x26 x39) ?v_27)) (?v_3 (= x28 (f0_2 x7 x27))) (?v_16 (not P21))) (let ((?v_81 (not ?v_197)) (?v_9 (not P11)) (?v_17 (not P23)) (?v_130 (not ?v_3)) (?v_38 (not P3)) (?v_8 (not ?v_29)) (?v_11 (not P12)) (?v_42 (not ?v_59)) (?v_80 (not P8)) (?v_15 (not ?v_86)) (?v_73 (not ?v_58)) (?v_95 (not ?v_103)) (?v_70 (not P32)) (?v_198 (not P7)) (?v_48 (not ?v_166)) (?v_201 (not ?v_155)) (?v_72 (not P30)) (?v_101 (not P10)) (?v_71 (not ?v_176)) (?v_24 (not (= x3 (f0_1 x2)))) (?v_77 (not P17)) (?v_26 (not P38)) (?v_92 (not ?v_13)) (?v_57 (not ?v_121)) (?v_143 (not P15)) (?v_179 (not ?v_60)) (?v_68 (not P33)) (?v_53 (not P39)) (?v_88 (not ?v_1)) (?v_142 (not P35)) (?v_56 (not ?v_132)) (?v_33 (not P20)) (?v_162 (not ?v_21)) (?v_94 (not P26)) (?v_37 (not ?v_151)) (?v_156 (not ?v_28)) (?v_125 (not P6)) (?v_65 (not P22)) (?v_190 (not ?v_31)) (?v_204 (not ?v_40)) (?v_169 (not ?v_78)) (?v_49 (not ?v_41)) (?v_106 (not ?v_84)) (?v_158 (not ?v_129)) (?v_141 (not P16)) (?v_116 (not ?v_136)) (?v_123 (not P27)) (?v_89 (not P28)) (?v_82 (not ?v_52)) (?v_191 (not ?v_55)) (?v_172 (not ?v_61)) (?v_102 (not ?v_63)) (?v_96 (not ?v_67)) (?v_105 (not P19)) (?v_90 (not P1)) (?v_115 (not P4)) (?v_91 (not ?v_113)) (?v_119 (not P18)) (?v_145 (not ?v_168)) (?v_157 (not P24)) (?v_177 (not P36)) (?v_149 (not P34)) (?v_120 (not P9)) (?v_109 (not ?v_182)) (?v_161 (not P0)) (?v_127 (not P37)) (?v_128 (not P14)) (?v_146 (not ?v_104)) (?v_122 (not ?v_108)) (?v_152 (not ?v_118)) (?v_199 (not ?v_62)) (?v_159 (not P25)) (?v_134 (not ?v_45)) (?v_165 (not P13)) (?v_175 (not ?v_133)) (?v_153 (not ?v_112)) (?v_202 (not P31)) (?v_207 (not ?v_54)) (?v_174 (not P29)) (?v_167 (not P5)) (?v_186 (not ?v_144))) (let ((?v_188 (or ?v_146 P9)) (?v_178 (not ?v_185)) (?v_200 (not P2)) (?v_196 (not ?v_83)) (?v_194 (not ?v_170)) (?v_209 (or P24 ?v_9)) (?v_2 (<= (+ (* 26 x20) (* 57 x35) (* 29 x3)) 9)) (?v_30 (<= (+ (* 2 x25) (* 22 x14) (* 15 x7)) 55))) (let ((?v_0 (not ?v_30)) (?v_69 (< (+ (* 30 x29) (* 49 x7) (* 56 x3)) 42)) (?v_6 (= (+ (* 14 x26) (* 2 x33) (* 48 x17)) 36))) (let ((?v_150 (not ?v_6)) (?v_147 (< (- (* 19 x14) (* 11 x5)) 10))) (let ((?v_111 (not ?v_147)) (?v_14 (= (- 0 (* 8 x29)) 40))) (let ((?v_164 (not ?v_14)) (?v_154 (not ?v_2)) (?v_110 (not ?v_69)) (?v_35 (< (+ (- (* (- 11) x32) (* 7 x33)) (* 31 x3)) (- 14))) (?v_10 (<= (- (- (* (- 35) x10) (* 47 x29)) (* 40 x35)) 11))) (let ((?v_117 (not ?v_10)) (?v_44 (<= (+ (* (- 26) x5) (* 52 x38) (* 26 x36)) 26)) (?v_20 (<= (+ (* (- 56) x15) (* 29 x34) (* 10 x30)) 8)) (?v_148 (< (- (- (* (- 46) x31) (* 17 x25)) (* 54 x15)) 47))) (let ((?v_51 (not ?v_148)) (?v_135 (distinct (- (- (* 14 x35) (* 47 x6)) (* 7 x31)) (- 48)))) (let ((?v_25 (not ?v_135)) (?v_46 (= (- (- (* (- 19) x9) (* 30 x20)) (* 57 x21)) 41)) (?v_75 (< (- (- (* (- 19) x23) (* 46 x8)) (* 42 x30)) (- 40)))) (let ((?v_4 (not ?v_75)) (?v_43 (<= (+ (- (* 31 x14) (* 19 x22)) (* 34 x13)) (- 3)))) (let ((?v_36 (not ?v_43)) (?v_32 (= (- (+ (* (- 17) x28) (* 25 x23)) (* 51 x25)) (- 37)))) (let ((?v_7 (not ?v_32)) (?v_124 (<= (+ (* 53 x12) (* 54 x25) (* 39 x6)) (- 56)))) (let ((?v_19 (not ?v_124)) (?v_184 (<= (+ (- 0 (* 51 x24)) (* 17 x30)) (- 33))) (?v_171 (<= (- (- (* (- 50) x28) (* 52 x28)) (* 4 x38)) 0))) (let ((?v_47 (not ?v_171)) (?v_23 (<= (- (- (* (- 41) x30) (* 5 x16)) (* 8 x3)) (- 25))) (?v_74 (distinct (+ (* (- 32) x27) (* 31 x8) (* 2 x9)) (- 38))) (?v_50 (distinct (- (- (* (- 44) x22) (* 12 x39)) (* 23 x9)) 15)) (?v_22 (<= (- (- (* 2 x0) (* 9 x7)) (* 37 x31)) (- 1)))) (let ((?v_100 (not ?v_22)) (?v_97 (not ?v_23)) (?v_114 (<= (- (- (* (- 38) x32) (* 30 x30)) 0) 36))) (let ((?v_39 (not ?v_114)) (?v_183 (<= (+ (* (- 47) x29) (* 28 x22) (* 30 x18)) 47))) (let ((?v_137 (not ?v_183)) (?v_203 (not ?v_35)) (?v_138 (not ?v_46)) (?v_173 (<= (- (+ (* 57 x8) (* 23 x18)) (* 13 x35)) (- 5))) (?v_66 (not ?v_20)) (?v_76 (<= (- (+ (* (- 38) x23) (* 37 x22)) (* 31 x21)) (- 12))) (?v_180 (<= (+ (- (* 20 x12) (* 37 x26)) (* 27 x22)) (- 28))) (?v_131 (not ?v_74)) (?v_87 (< (+ (- x24 (* 28 x39)) (* 23 x8)) (- 43)))) (let ((?v_99 (not ?v_87)) (?v_192 (<= (+ (- (* (- 16) x25) (* 53 x33)) (* 10 x16)) (- 22)))) (let ((?v_93 (not ?v_192)) (?v_140 (not ?v_50)) (?v_195 (not ?v_76)) (?v_126 (= (- (+ (* 4 x27) (* 39 x21)) (* 37 x8)) (- 38)))) (let ((?v_139 (not ?v_126)) (?v_160 (<= (+ (- (* (- 33) x14) (* 53 x5)) (* 31 x36)) 33))) (let ((?v_107 (not ?v_160)) (?v_208 (not ?v_44)) (?v_163 (= (- (- (* (- 27) x30) (* 30 x9)) (* 19 x3)) (- 26)))) (let ((?v_189 (not ?v_163)) (?v_187 (< (+ (* (- 13) x23) (* 50 x15) (* 29 x20)) 50)) (?v_181 (not ?v_180)) (?v_193 (not ?v_184))) (let ((?v_206 (not ?v_187)) (?v_205 (not ?v_173))) (and (and (and (and (and (and (and (and (and (and (and (and (and (and (and (and (and (and (and (and (and (and (and (and (and (and (and (and (and (and (and (and (and (and (and (and (and (and (and (and (and (and (and (and (and (and (and (and (and (and (and (and (and (and (and (and (and (and (and (and (and (and (and (and (and (and (and (and (and (and (and (and (and (and (and (and (and (and (and (and (and (and (and (and (and (and (and (and (and (and (and (and (and (and (and (and (and (and (and (and (and (and (and (and (and (and (and (and (and (and (and (and (and (and (and (and (and (and (and (and (and (and (and (and (and (and (and (and (and (and (and (and (and (and (and (and (and (and (and (and (and (and (and (and (and (and (and (and (and (and (and (and (and (and (and (and (and (and (and (and (and (and (and (and (and (and (and (and (and (and (and (and (and (and (and (and (and (and (and (and (and (and (and (and (and (and (and (and (and (and (and (and (and (and (and (and (and (and (and (and (and (and (and (and (and (and (and (and (and (and (and (and (and (and (and (and (and (and (and (and (and (and (and (and (and (and (and (and (and (and (and (and (and (and (and (and (and (and (and (and (and (and (and (and (and (and (and (and (and (and (and (and (and (and (and (and (and (and (and (and (and (and (and (and (and (and (and (and (and (and (and (and (and (and (and (and (and (and (and (and (and (and (and (and (and (and (and (and (and (and (and (and (and (and (and (and (and (and (and (and (and (and (and (and (and (and (and (and (and (and (and (and (and (and (and (and (and (and (and (and (and (and (and (and (and (and (and (and (and (and (and (and (and (and (and (and (and (and (and (and (and (and (and (and (and (and (and (and (and (and (and (and (and (and (and (and (and (and (and (and (and (and (and (and (and (and (and (and (and (and (and (and (and (and (and (and (and (and (and (and (and (and (and (and (and (and (and (and (and (and (and (and (and (and (and (and (and (and (and (and (and (and (and (and (and (and (and (and (and (and (and (and (and (and (and (and (and (and (and (and (and (and (and (and (and (and (and (and (and (and (and (and (and (and (and (and (and (and (and (and (and (and (and (and (and (and (and (and (and (and (and (and (and (and (and (and (and (and (and (and (and (and (and (and (and (and (and (and (and (and (and (and (and (and (and (and (and (and (and (or (or ?v_55 ?v_35) ?v_2) (or (or P17 ?v_0) ?v_117)) (or (or ?v_16 ?v_1) ?v_31)) (or (or ?v_81 ?v_69) ?v_108)) (or (or ?v_9 ?v_17) ?v_44)) (or (or ?v_20 ?v_0) P28)) (or (or P21 ?v_51) ?v_130)) (or (or ?v_67 ?v_25) ?v_1)) (or (or ?v_38 ?v_46) ?v_8)) (or (or ?v_11 ?v_42) ?v_80)) (or (or ?v_2 ?v_3) ?v_4)) (or (or ?v_15 ?v_150) ?v_73)) (or (or P16 ?v_36) ?v_4)) (or (or ?v_95 ?v_70) P16)) (or (or ?v_111 ?v_198) ?v_41)) (or (or ?v_48 ?v_201) ?v_7)) (or (or ?v_6 ?v_13) ?v_72)) (or (or P38 ?v_19) ?v_184)) (or (or ?v_7 ?v_101) ?v_164)) (or (or ?v_54 P31) ?v_71)) (or (or P27 ?v_28) ?v_8)) (or (or ?v_47 ?v_3) ?v_24)) (or (or ?v_9 ?v_77) ?v_26)) (or (or ?v_23 ?v_3) ?v_74)) (or (or ?v_10 ?v_50) ?v_11)) (or (or ?v_21 ?v_92) ?v_22)) (or (or ?v_57 ?v_14) P12)) (or (or ?v_143 ?v_15) ?v_16)) (or (or ?v_17 ?v_63) P30)) (or (or ?v_83 ?v_104) ?v_19)) (or (or P13 P6) ?v_20)) (or (or ?v_179 ?v_21) P29)) (or (or ?v_100 P14) P9)) (or (or ?v_68 ?v_15) ?v_53)) (or (or ?v_97 ?v_39) P4)) (or (or ?v_24 ?v_88) ?v_142)) (or (or ?v_25 P33) ?v_56)) (or (or ?v_26 ?v_33) ?v_162)) (or (or P33 ?v_94) ?v_37)) (or (or ?v_20 ?v_156) ?v_29)) (or (or ?v_1 ?v_30) ?v_17)) (or (or ?v_125 ?v_137) ?v_10)) (or (or ?v_65 ?v_190) ?v_32)) (or (or ?v_204 ?v_25) ?v_33)) (or (or ?v_19 ?v_169) ?v_32)) (or (or P38 P23) P34)) (or (or ?v_61 ?v_203) ?v_36)) (or (or ?v_37 ?v_45) ?v_38)) (or (or P0 ?v_39) ?v_9)) (or (or ?v_40 ?v_49) ?v_42)) (or (or ?v_43 ?v_106) ?v_44)) (or (or ?v_45 ?v_158) ?v_62)) (or (or ?v_52 ?v_138) ?v_141)) (or (or ?v_173 ?v_47) ?v_48)) (or (or ?v_49 ?v_29) ?v_116)) (or (or ?v_50 ?v_44) ?v_66)) (or (or ?v_123 ?v_89) ?v_76)) (or (or ?v_3 ?v_51) ?v_82)) (or (or ?v_53 P1) P24)) (or (or ?v_54 ?v_191) ?v_32)) (or (or ?v_56 P4) P33)) (or (or ?v_133 ?v_41) ?v_57)) (or (or ?v_11 P39) P34)) (or (or ?v_58 P9) ?v_59)) (or (or P14 ?v_60) ?v_172)) (or (or P3 ?v_62) ?v_102)) (or (or ?v_112 ?v_65) ?v_66)) (or (or P6 ?v_96) ?v_105)) (or (or ?v_68 ?v_69) P24)) (or (or ?v_90 ?v_115) ?v_70)) (or (or P35 ?v_71) ?v_154)) (or (or ?v_46 ?v_91) ?v_22)) (or (or ?v_180 ?v_72) ?v_73)) (or (or ?v_54 ?v_110) P29)) (or (or ?v_131 P2) ?v_75)) (or (or ?v_76 ?v_77) ?v_23)) (or (or ?v_119 ?v_78) ?v_145)) (or (or ?v_80 ?v_87) ?v_55)) (or (or ?v_81 ?v_157) ?v_82)) (or (or ?v_29 ?v_83) ?v_84)) (or (or ?v_170 ?v_86) ?v_54)) (or (or ?v_4 P10) ?v_99)) (or (or ?v_118 ?v_93) ?v_36)) (or (or ?v_177 ?v_88) ?v_89)) (or (or ?v_90 ?v_149) ?v_10)) (or (or ?v_91 ?v_92) ?v_93)) (or (or P18 ?v_140) ?v_44)) (or (or ?v_9 ?v_94) ?v_120)) (or (or P10 ?v_95) P5)) (or (or ?v_96 P11) ?v_57)) (or (or ?v_3 ?v_26) ?v_54)) (or (or ?v_195 ?v_57) ?v_139)) (or (or ?v_55 ?v_97) ?v_109)) (or (or ?v_29 ?v_76) ?v_2)) (or (or ?v_72 P23) P14)) (or (or ?v_40 ?v_67) ?v_107)) (or (or ?v_53 ?v_99) ?v_161)) (or (or ?v_68 ?v_100) ?v_56)) (or (or ?v_101 P11) ?v_127)) (or (or ?v_86 P8) P24)) (or (or ?v_102 ?v_103) ?v_128)) (or (or ?v_56 P5) ?v_146)) (or (or ?v_100 ?v_96) ?v_105)) (or (or ?v_106 ?v_62) ?v_87)) (or (or ?v_78 P33) ?v_107)) (or (or ?v_122 P35) ?v_109)) (or (or P3 ?v_110) ?v_144)) (or (or ?v_99 ?v_57) ?v_111)) (or (or ?v_112 ?v_78) ?v_113)) (or (or ?v_39 ?v_114) ?v_77)) (or (or ?v_40 P16) P36)) (or (or ?v_115 P8) ?v_59)) (or (or ?v_116 ?v_41) ?v_117)) (or (or ?v_0 ?v_152) ?v_119)) (or (or ?v_3 ?v_120) ?v_121)) (or (or ?v_122 ?v_44) ?v_59)) (or (or P26 ?v_123) ?v_120)) (or (or ?v_1 ?v_124) ?v_41)) (or (or ?v_125 ?v_13) ?v_35)) (or (or ?v_89 P25) ?v_73)) (or (or ?v_44 ?v_125) ?v_126)) (or (or ?v_127 ?v_128) ?v_17)) (or (or ?v_41 ?v_106) ?v_129)) (or (or ?v_130 ?v_199) ?v_61)) (or (or ?v_208 ?v_63) P0)) (or (or ?v_99 ?v_49) ?v_55)) (or (or ?v_72 ?v_10) ?v_159)) (or (or ?v_24 ?v_134) ?v_26)) (or (or ?v_100 ?v_117) ?v_83)) (or (or ?v_33 ?v_125) P26)) (or (or ?v_131 ?v_91) P34)) (or (or ?v_132 ?v_165) ?v_123)) (or (or ?v_45 ?v_175) ?v_7)) (or (or ?v_86 ?v_134) ?v_20)) (or (or ?v_135 P5) P13)) (or (or P7 ?v_136) P3)) (or (or ?v_137 ?v_189) ?v_134)) (or (or ?v_24 ?v_60) P11)) (or (or ?v_61 ?v_11) ?v_138)) (or (or ?v_121 ?v_58) ?v_153)) (or (or ?v_139 P35) ?v_121)) (or (or P27 ?v_75) ?v_140)) (or (or ?v_141 P17) ?v_142)) (or (or ?v_39 P12) ?v_42)) (or (or P4 ?v_9) ?v_22)) (or (or ?v_114 P31) ?v_143)) (or (or ?v_144 ?v_36) ?v_135)) (or (or ?v_145 P17) ?v_146)) (or (or ?v_4 ?v_2) ?v_124)) (or (or ?v_65 ?v_90) P34)) (or (or ?v_59 ?v_132) ?v_8)) (or (or P14 ?v_147) ?v_145)) (or (or P18 ?v_32) ?v_2)) (or (or ?v_26 ?v_148) ?v_1)) (or (or ?v_99 ?v_146) ?v_31)) (or (or ?v_20 ?v_105) ?v_26)) (or (or ?v_123 ?v_128) P33)) (or (or ?v_20 ?v_13) ?v_141)) (or (or P25 ?v_127) ?v_100)) (or (or P37 ?v_90) ?v_76)) (or (or ?v_148 ?v_91) ?v_23)) (or (or ?v_149 ?v_51) ?v_150)) (or (or ?v_151 P21) ?v_95)) (or (or P8 ?v_108) ?v_88)) (or (or ?v_66 ?v_107) ?v_76)) (or (or ?v_84 P25) ?v_152)) (or (or P8 P25) P32)) (or (or ?v_54 ?v_19) ?v_187)) (or (or ?v_153 ?v_109) P9)) (or (or P7 ?v_25) ?v_53)) (or (or ?v_154 ?v_129) ?v_155)) (or (or ?v_134 ?v_68) ?v_74)) (or (or ?v_55 ?v_31) ?v_39)) (or (or P17 ?v_127) ?v_89)) (or (or P5 ?v_133) ?v_117)) (or (or ?v_99 ?v_125) ?v_61)) (or (or ?v_81 ?v_10) ?v_100)) (or (or P25 P15) ?v_44)) (or (or ?v_100 ?v_42) ?v_156)) (or (or P1 ?v_103) ?v_157)) (or (or ?v_102 ?v_143) ?v_111)) (or (or ?v_52 ?v_69) P25)) (or (or ?v_121 ?v_158) P34)) (or (or ?v_16 ?v_202) P12)) (or (or ?v_159 ?v_127) ?v_103)) (or (or P2 ?v_7) ?v_142)) (or (or ?v_70 ?v_153) ?v_132)) (or (or P29 P8) ?v_84)) (or (or ?v_83 ?v_78) ?v_59)) (or (or ?v_127 ?v_23) ?v_160)) (or (or ?v_54 P12) ?v_48)) (or (or ?v_38 ?v_44) ?v_110)) (or (or ?v_77 ?v_75) ?v_146)) (or (or P20 ?v_2) P26)) (or (or ?v_36 ?v_141) ?v_96)) (or (or ?v_51 ?v_207) ?v_90)) (or (or ?v_31 P9) ?v_74)) (or (or P20 ?v_38) ?v_90)) (or (or ?v_161 ?v_162) ?v_174)) (or (or P27 P12) ?v_2)) (or (or ?v_163 ?v_164) ?v_38)) (or (or P3 ?v_167) P35)) (or (or ?v_186 ?v_165) ?v_166)) (or (or ?v_108 ?v_122) ?v_165)) (or ?v_188 ?v_108)) (or (or ?v_53 P39) ?v_76)) (or (or ?v_133 ?v_17) ?v_69)) (or (or ?v_154 ?v_43) ?v_15)) (or (or P0 P16) P30)) (or (or ?v_146 ?v_127) ?v_29)) (or (or ?v_66 ?v_31) P10)) (or (or ?v_60 ?v_167) ?v_53)) (or (or ?v_50 ?v_127) ?v_20)) (or (or ?v_37 ?v_4) ?v_147)) (or (or P28 ?v_122) P36)) (or (or ?v_49 ?v_95) ?v_56)) (or (or ?v_123 ?v_74) ?v_95)) (or (or P26 ?v_153) ?v_101)) (or (or ?v_138 P36) ?v_68)) (or (or ?v_130 ?v_130) ?v_133)) (or (or ?v_48 ?v_128) P21)) (or (or ?v_135 ?v_168) ?v_106)) (or (or ?v_169 P28) ?v_97)) (or (or P33 ?v_158) ?v_170)) (or (or ?v_102 ?v_49) ?v_156)) (or (or ?v_114 ?v_4) ?v_163)) (or (or ?v_4 ?v_164) ?v_10)) (or (or ?v_83 P10) ?v_171)) (or (or ?v_172 P22) ?v_145)) (or (or ?v_140 ?v_47) ?v_55)) (or (or ?v_173 ?v_171) ?v_174)) (or (or P6 ?v_145) P37)) (or (or ?v_119 ?v_17) ?v_178)) (or (or ?v_28 ?v_158) ?v_175)) (or (or ?v_24 P13) ?v_176)) (or (or ?v_20 ?v_22) ?v_177)) (or (or ?v_100 ?v_178) P0)) (or (or ?v_69 P29) ?v_179)) (or (or ?v_62 ?v_45) ?v_147)) (or (or P27 P6) P23)) (or (or ?v_17 ?v_181) P3)) (or (or ?v_36 ?v_139) P11)) (or (or ?v_77 ?v_37) ?v_177)) (or (or ?v_181 ?v_128) P23)) (or (or ?v_182 ?v_6) ?v_81)) (or (or ?v_183 ?v_114) P30)) (or (or ?v_159 ?v_132) ?v_93)) (or (or ?v_193 ?v_88) ?v_30)) (or (or ?v_26 P11) ?v_144)) (or (or ?v_122 P5) ?v_165)) (or (or ?v_103 ?v_77) ?v_172)) (or (or ?v_178 P25) ?v_0)) (or (or ?v_46 ?v_101) ?v_117)) (or (or ?v_177 ?v_141) ?v_155)) (or (or ?v_73 ?v_184) ?v_92)) (or (or ?v_19 ?v_32) ?v_2)) (or (or ?v_149 ?v_21) ?v_179)) (or (or ?v_17 ?v_20) P33)) (or (or ?v_113 ?v_47) ?v_178)) (or (or ?v_70 ?v_58) ?v_47)) (or (or ?v_110 ?v_117) P5)) (or (or ?v_128 ?v_105) ?v_39)) (or (or ?v_42 ?v_67) ?v_107)) (or (or ?v_156 ?v_108) P1)) (or (or ?v_11 ?v_157) ?v_185)) (or (or ?v_110 ?v_162) ?v_176)) (or (or ?v_167 ?v_84) P12)) (or (or P21 P37) ?v_130)) (or (or ?v_50 ?v_39) ?v_186)) (or (or ?v_200 ?v_52) ?v_126)) (or (or ?v_127 P39) ?v_78)) (or (or P25 ?v_81) ?v_4)) (or (or ?v_187 ?v_31) ?v_168)) (or ?v_188 ?v_149)) (or (or ?v_15 ?v_178) ?v_17)) (or (or ?v_47 ?v_20) ?v_33)) (or (or ?v_50 ?v_141) ?v_37)) (or (or ?v_100 ?v_146) ?v_132)) (or (or P26 P19) ?v_31)) (or (or ?v_67 ?v_127) ?v_179)) (or (or ?v_3 ?v_44) ?v_169)) (or (or ?v_136 ?v_44) ?v_63)) (or (or ?v_75 ?v_139) ?v_177)) (or (or ?v_125 P9) ?v_115)) (or (or ?v_52 ?v_109) ?v_0)) (or (or P21 ?v_108) ?v_169)) (or (or ?v_206 ?v_122) ?v_181)) (or (or ?v_104 ?v_144) ?v_59)) (or (or ?v_131 ?v_33) P24)) (or (or ?v_15 ?v_205) ?v_93)) (or (or ?v_40 ?v_74) ?v_15)) (or (or ?v_196 ?v_81) ?v_100)) (or (or ?v_71 ?v_118) ?v_42)) (or (or ?v_144 ?v_45) ?v_157)) (or (or ?v_15 ?v_194) ?v_130)) (or (or P0 P21) ?v_113)) (or (or ?v_101 ?v_77) ?v_71)) (or (or ?v_189 ?v_136) ?v_49)) (or (or ?v_19 ?v_142) ?v_176)) (or (or ?v_190 ?v_131) ?v_178)) (or (or ?v_39 ?v_2) ?v_62)) (or (or ?v_8 ?v_82) ?v_119)) (or (or ?v_21 ?v_145) P36)) (or (or P21 ?v_76) ?v_25)) (or (or ?v_69 ?v_93) ?v_131)) (or (or ?v_31 ?v_7) P8)) (or (or ?v_108 ?v_149) ?v_43)) (or (or ?v_6 ?v_146) P24)) (or (or ?v_108 ?v_95) ?v_147)) (or (or P0 ?v_189) ?v_118)) (or (or ?v_154 ?v_8) ?v_47)) (or (or ?v_95 P8) ?v_183)) (or (or ?v_157 ?v_4) ?v_191)) (or (or ?v_192 ?v_33) ?v_117)) (or (or P29 ?v_70) ?v_17)) (or (or ?v_99 ?v_193) ?v_140)) (or (or ?v_141 ?v_194) ?v_153)) (or (or ?v_191 ?v_91) ?v_195)) (or (or P7 ?v_97) ?v_196)) (or (or P12 ?v_123) P5)) (or (or P39 P7) ?v_1)) (or (or ?v_74 ?v_106) ?v_112)) (or (or P1 ?v_164) ?v_106)) (or (or ?v_96 ?v_132) ?v_49)) (or (or P15 ?v_166) ?v_192)) (or (or ?v_93 ?v_152) ?v_124)) (or (or ?v_101 ?v_168) ?v_154)) (or (or ?v_38 ?v_21) ?v_136)) (or (or ?v_3 ?v_189) ?v_47)) (or ?v_209 ?v_83)) (or (or ?v_69 ?v_126) P1)) (or (or ?v_69 P35) ?v_60)) (or (or P22 ?v_156) ?v_11)) (or (or ?v_88 ?v_197) ?v_9)) (or (or P24 P7) ?v_8)) (or (or P7 ?v_198) ?v_41)) (or (or ?v_97 P27) ?v_47)) (or (or P37 ?v_46) P24)) (or (or ?v_136 ?v_14) ?v_163)) (or (or ?v_128 ?v_127) ?v_15)) (or (or ?v_165 ?v_44) ?v_121)) (or (or ?v_192 ?v_117) ?v_40)) (or (or ?v_199 ?v_50) P27)) (or (or ?v_11 ?v_189) ?v_143)) (or (or ?v_0 ?v_105) ?v_179)) (or (or ?v_166 ?v_185) ?v_66)) (or (or ?v_3 ?v_190) ?v_99)) (or (or ?v_143 ?v_82) ?v_167)) (or (or ?v_61 ?v_73) ?v_40)) (or (or ?v_38 ?v_68) ?v_132)) (or (or P30 ?v_24) P3)) (or (or ?v_191 ?v_151) ?v_127)) (or (or ?v_186 ?v_48) ?v_17)) (or (or ?v_134 ?v_178) ?v_152)) (or (or ?v_140 ?v_70) ?v_6)) (or (or ?v_170 ?v_137) ?v_63)) (or (or ?v_8 ?v_191) ?v_198)) (or (or P31 P29) ?v_126)) (or (or ?v_24 ?v_7) ?v_46)) (or (or ?v_55 ?v_139) ?v_149)) (or (or ?v_93 P25) ?v_62)) (or (or ?v_37 ?v_129) ?v_112)) (or (or P11 ?v_6) ?v_45)) (or (or ?v_54 ?v_0) ?v_16)) (or (or ?v_71 ?v_200) ?v_70)) (or (or P27 ?v_6) ?v_28)) (or (or ?v_143 ?v_158) ?v_62)) (or (or ?v_73 ?v_77) ?v_66)) (or (or ?v_21 ?v_0) ?v_136)) (or (or ?v_89 ?v_128) ?v_201)) (or (or P15 P30) ?v_174)) (or (or ?v_106 ?v_119) ?v_3)) (or (or ?v_77 ?v_35) P11)) (or (or P20 ?v_40) P23)) (or (or ?v_97 ?v_144) P4)) (or (or ?v_39 ?v_189) ?v_22)) (or (or ?v_62 ?v_42) ?v_55)) (or (or ?v_48 ?v_28) ?v_80)) (or (or P21 ?v_88) P22)) (or (or ?v_165 ?v_168) ?v_174)) (or (or ?v_175 ?v_113) ?v_37)) (or (or ?v_202 ?v_92) ?v_119)) (or (or ?v_143 P23) ?v_28)) (or (or P11 ?v_151) ?v_160)) (or (or ?v_0 ?v_36) ?v_55)) (or (or P34 ?v_192) ?v_40)) (or (or P36 ?v_65) ?v_167)) (or (or P21 ?v_1) ?v_50)) (or (or P37 P33) ?v_17)) (or (or P20 ?v_203) ?v_131)) (or (or ?v_200 ?v_158) ?v_97)) (or (or ?v_74 ?v_162) ?v_152)) (or (or ?v_35 ?v_48) ?v_200)) (or (or P12 ?v_120) ?v_66)) (or (or ?v_133 ?v_102) P19)) (or (or ?v_60 P2) ?v_95)) (or (or ?v_138 ?v_63) P9)) (or (or ?v_113 ?v_183) ?v_29)) (or (or P19 ?v_187) ?v_21)) (or (or ?v_199 ?v_138) ?v_132)) (or (or P23 ?v_71) ?v_118)) (or (or P35 ?v_88) ?v_189)) (or (or ?v_130 ?v_103) P9)) (or (or ?v_204 ?v_127) ?v_45)) (or (or ?v_61 ?v_166) ?v_108)) (or (or P37 P31) P38)) (or (or ?v_167 ?v_153) ?v_139)) (or (or ?v_104 ?v_67) ?v_122)) (or (or ?v_197 ?v_149) ?v_117)) (or (or ?v_23 ?v_77) ?v_152)) (or (or ?v_192 ?v_144) ?v_163)) (or (or ?v_38 ?v_193) ?v_28)) (or (or ?v_163 ?v_191) ?v_31)) (or (or ?v_120 ?v_19) P36)) (or (or ?v_205 P26) ?v_165)) (or (or ?v_181 ?v_160) ?v_2)) (or (or P13 ?v_67) ?v_3)) (or (or ?v_77 ?v_107) ?v_158)) (or (or ?v_41 ?v_184) ?v_169)) (or (or P2 P38) ?v_114)) (or (or ?v_190 ?v_36) P8)) (or (or ?v_112 ?v_153) ?v_74)) (or (or P31 ?v_183) ?v_173)) (or (or ?v_82 ?v_170) ?v_206)) (or (or ?v_67 ?v_26) ?v_122)) (or (or ?v_207 ?v_75) ?v_19)) (or (or P30 ?v_62) ?v_71)) (or (or ?v_202 ?v_52) ?v_43)) (or (or P3 ?v_84) ?v_29)) (or (or P13 P21) ?v_208)) (or (or ?v_132 ?v_94) P12)) (or (or ?v_22 ?v_11) ?v_59)) (or (or P36 ?v_196) ?v_191)) (or (or ?v_21 ?v_4) P9)) (or ?v_209 ?v_192)) (or (or ?v_131 ?v_95) ?v_190)) (or (or ?v_184 P39) ?v_71)) (or (or ?v_28 ?v_53) ?v_40)) (or (or ?v_74 P36) P38)) (or (or P13 ?v_130) ?v_60)) (or (or ?v_11 ?v_113) ?v_108)) (or (or P25 ?v_54) ?v_105)) (or (or ?v_184 ?v_130) ?v_8)) (or (or ?v_146 P2) ?v_144)) (or (or ?v_78 ?v_119) ?v_86)) (or (or ?v_2 ?v_130) P13)) (or (or ?v_74 P10) ?v_94)) (or (or ?v_201 ?v_172) ?v_143)) (or (or ?v_48 ?v_164) ?v_118)) (or (or ?v_38 P22) ?v_145)) (or (or ?v_73 ?v_176) ?v_14)) (or (or ?v_132 ?v_151) ?v_8)) (or (or ?v_173 ?v_151) ?v_177)) (or (or ?v_89 ?v_91) ?v_50)) (or (or ?v_184 ?v_80) ?v_143)) (or (or ?v_138 P21) ?v_67)) (or (or ?v_99 P14) ?v_59)) (or (or P32 ?v_182) ?v_74)) (or (or ?v_57 ?v_178) ?v_54)) (or (or P14 P17) ?v_172)) (or (or ?v_65 ?v_169) ?v_150)) (or (or P39 ?v_124) ?v_163)) (or (or ?v_17 ?v_127) P34)) (or (or ?v_149 P39) ?v_155)) (or (or P16 P34) ?v_182)) (or (or ?v_161 ?v_178) ?v_21)) (or (or P13 ?v_2) ?v_31)) (or (or ?v_75 ?v_170) ?v_8)) (or (or ?v_163 ?v_158) ?v_194)) (or (or P21 P32) P6)) (or (or ?v_126 ?v_183) ?v_7)) (or (or ?v_186 ?v_106) ?v_29)) (or (or ?v_93 ?v_90) ?v_28)) (or (or P11 ?v_40) ?v_206)) (or (or ?v_166 ?v_200) ?v_24)) (or (or ?v_171 ?v_33) P2)) (or (or ?v_87 ?v_75) ?v_97)) (or (or P38 ?v_0) ?v_58)) (or (or ?v_129 ?v_16) ?v_181)) (or (or ?v_104 ?v_207) ?v_127)))))))))))))))))))))))))))))))))))
(check-sat)
(exit)
